n = 50;
d = [12, 94, 92, 91, 7, 19, 11, 66, 21, 87, 14, 75, 13, 16, 20, 95, 66, 7, 7, 77, 45, 6, 89, 15, 34, 77, 20, 76, 88, 53, 74, 88, 52, 27, 9, 88, 69, 62, 98, 52, 61, 9, 62, 52, 90, 54, 5, 59, 15, 88];
m = 40;
pre = [1, 2, 3, 4, 6, 7, 8, 9, 11, 12, 13, 14, 16, 17, 18, 19, 21, 22, 23, 24, 26, 27, 28, 29, 31, 32, 33, 34, 36, 37, 38, 39, 41, 42, 43, 44, 46, 47, 48, 49];
post = [2, 3, 4, 5, 7, 8, 9, 10, 12, 13, 14, 15, 17, 18, 19, 20, 22, 23, 24, 25, 27, 28, 29, 30, 32, 33, 34, 35, 37, 38, 39, 40, 42, 43, 44, 45, 47, 48, 49, 50];
o = 5;
disj = [{1,10,12,18,24,28,33,38,43,50}, {5,6,11,20,21,30,32,36,44,49}, {2,9,15,16,25,27,31,40,41,46}, {3,7,13,19,22,26,34,37,45,48}, {4,8,14,17,23,29,35,39,42,47}];